40 342
1 5 6 13 14 17 20 21 23 24 26 31 32 35
0 4 5 7 9 11 12 16 17 18 19 22 23 24 25 28 30 31 33 36 37
6 9 12 13 14 17 18 24 25 32 33
8 9 11 12 14 17 18 20 21 22 23 24 30 32 33 35 36 37
1 8 12 13 16 21 22 23 25 29 31 32 33 34 35 37
0 1 6 10 12 13 15 16 17 18 23 25 26 29 30 32 34 36 37 39
0 2 5 7 8 9 10 12 18 20 22 23 24 26 28 30 32 34 36 39
1 6 8 9 10 11 15 16 17 19 21 23 24 26 29 30 34 37 38
3 4 6 7 11 14 16 17 23 24 26 27 28 33 36 37 38
1 2 3 6 7 11 15 18 19 22 23 25 30 34 35 38
5 6 7 19 22 24 27 31 33 34 38
1 3 7 8 9 13 16 19 21 23 24 27 30 32 35 37
1 2 3 4 5 6 14 16 17 19 21 22 24 25 26 29 30 36
0 2 4 5 11 14 16 19 20 34 36 37 39
0 2 3 8 12 13 17 18 19 21 22 27 29 33 34 35 36 39
5 7 9 19 20 21 23 24 25 26 27 28 32 34 35
1 4 5 7 8 11 12 13 18 19 22 23 25 29 31 32 33 38 39
0 1 2 3 5 7 8 12 14 19 21 23 24 28 29 32 35 38 39
1 2 3 5 6 9 14 16 20 23 29 32 33 34 38
1 7 9 10 11 12 13 14 15 16 17 21 22 23 24 25 29 30 33 34 35 36 39
0 3 6 13 15 18 21 22 25 29 31 34 39
0 3 4 7 11 12 14 15 17 19 20 24 26 27 33 37
1 3 4 6 9 10 12 14 16 19 20 25 27 28 29 30 33 35 36 38
0 1 3 4 5 6 7 8 9 11 15 16 17 18 19 24 26 27 28 29 30 32 33 34 39
0 1 2 3 6 7 8 10 11 12 15 17 19 21 23 25 28 31 32 33 34 36 37 38
1 2 4 5 9 12 15 16 19 20 22 24 26 31 32 33 36 37
0 5 6 7 8 12 15 21 23 25 27 30 31 37 38
8 10 11 14 15 21 22 23 26 31 33 34 35 36
1 6 8 15 17 22 23 24 30 32 35 36 37 38 39
4 5 7 12 14 16 17 18 19 20 22 23 30 33 35 36 37 39
1 3 5 6 7 9 11 12 19 22 23 26 28 29 33 36 37 38
0 1 4 10 16 20 24 25 26 27 32 33 34
0 2 3 4 5 6 11 15 16 17 18 23 24 25 28 31 33 34 39
1 2 3 4 8 10 14 16 18 19 21 22 23 24 25 27 29 30 31 32 36 38
4 5 6 7 9 10 13 14 15 18 19 20 23 24 27 31 32 36 37
0 3 4 9 11 14 15 17 19 22 27 28 29
1 3 5 6 8 12 13 14 19 22 24 25 27 28 29 30 33 34 38
1 3 4 5 7 8 11 13 21 24 25 26 28 29 30 34 39
7 8 9 10 16 17 18 22 24 26 28 30 33 36
5 6 13 14 16 17 19 20 23 28 29 32 37
